NAME: tsp30_8
COMMENT: 30-tsp problem (Padberg/Rinaldi)
TYPE: TSP
DIMENSION: 30
EDGE_WEIGHT_TYPE : EUC_2D
NODE_COORD_SECTION
1 6 40
2 37 36
3 15 2
4 36 6
5 1 20
6 40 25
7 31 32
8 17 29
9 12 11
10 9 15
11 31 11
12 23 8
13 32 39
14 39 37
15 8 19
16 2 38
17 39 15
18 35 26
19 39 22
20 25 4
21 25 12
22 24 26
23 25 33
24 33 1
25 37 31
26 24 35
27 4 3
28 31 23
29 1 20
30 14 35
